Version identifier: 22.1.0.0 | 2022-03-09 | 1a383f8ce
CPXPARAM_Threads                                 1
CPXPARAM_MIP_Strategy_VariableSelect             3
CPXPARAM_TimeLimit                               593.11854308199997
1 of 1 MIP starts provided solutions.
MIP start 'm1' defined initial solution with objective 471.0000.
Tried aggregator 1 time.
MIP Presolve eliminated 19 rows and 0 columns.
MIP Presolve modified 548 coefficients.
Reduced MIP has 4503 rows, 10500 columns, and 231559 nonzeros.
Reduced MIP has 10500 binaries, 0 generals, 0 SOSs, and 0 indicators.
Presolve time = 0.22 sec. (373.44 ticks)
Probing time = 0.03 sec. (28.48 ticks)
Tried aggregator 1 time.
Detecting symmetries...
MIP Presolve modified 15 coefficients.
Reduced MIP has 4503 rows, 10500 columns, and 231733 nonzeros.
Reduced MIP has 10500 binaries, 0 generals, 0 SOSs, and 0 indicators.
Presolve time = 0.22 sec. (351.90 ticks)
Probing time = 0.03 sec. (28.50 ticks)
Clique table members: 2991.
MIP emphasis: balance optimality and feasibility.
MIP search method: dynamic search.
Parallel mode: none, using 1 thread.
Root relaxation solution time = 6.48 sec. (7486.70 ticks)

        Nodes                                         Cuts/
   Node  Left     Objective  IInf  Best Integer    Best Bound    ItCnt     Gap

*     0+    0                          471.0000   125250.0000              --- 
      0     0      500.0000  2175      471.0000      500.0000    11922    6.16%
      0     0      500.0000   249      471.0000    Cliques: 1    12631    6.16%
      0     0      500.0000   722      471.0000     Cuts: 179    17576    6.16%
*     0+    0                          500.0000      500.0000             0.00%
      0     0        cutoff            500.0000      500.0000    17576    0.00%
      0     0        cutoff            500.0000      500.0000    17576    0.00%
Elapsed time = 71.71 sec. (66597.44 ticks, tree = 0.01 MB, solutions = 2)

Clique cuts applied:  8
Zero-half cuts applied:  45
Lift and project cuts applied:  4
Gomory fractional cuts applied:  10

Root node processing (before b&c):
  Real time             =   71.71 sec. (66598.61 ticks)
Sequential b&c:
  Real time             =    0.00 sec. (0.00 ticks)
                          ------------
Total (root+branch&cut) =   71.71 sec. (66598.61 ticks)
Primal:	500
Dual:	500
Status:	Optimal
Time:	71.71
Sequence:
	15
	7
	16
	15
	7
	0
	10
	7
	9
	5
	18
	8
	14
	1
	9
	12
	13
	11
	5
	18
	19
	5
	18
	3
	14
	18
	4
	14
	1
	8
	14
	1
	11
	5
	13
	9
	12
	18
	9
	12
	13
	8
	12
	13
	8
	5
	13
	8
	5
	13
	11
	5
	13
	8
	5
	18
	8
	5
	13
	0
	0
	15
	16
	0
	15
	0
	2
	15
	6
	7
	15
	0
	16
	15
	7
	0
	19
	17
	2
	19
	17
	7
	11
	10
	2
	9
	17
	2
	19
	17
	2
	0
	15
	16
	7
	15
	7
	16
	15
	7
	6
	10
	8
	16
	17
	9
	16
	17
	11
	16
	17
	8
	7
	14
	8
	1
	14
	3
	4
	10
	7
	11
	17
	16
	9
	17
	2
	19
	10
	0
	6
	15
	2
	7
	17
	19
	2
	17
	19
	0
	10
	3
	4
	10
	3
	4
	10
	2
	7
	15
	7
	16
	15
	0
	6
	15
	7
	6
	15
	2
	6
	15
	0
	16
	15
	7
	6
	15
	7
	16
	15
	0
	6
	15
	2
	7
	10
	4
	3
	10
	4
	3
	10
	4
	3
	10
	16
	3
	10
	4
	3
	14
	4
	3
	14
	1
	9
	12
	18
	9
	5
	18
	8
	14
	1
	4
	14
	3
	1
	14
	9
	1
	12
	11
	1
	14
	9
	1
	14
	9
	1
	14
	11
	1
	14
	9
	1
	14
	11
	2
	17
	9
	16
	12
	11
	13
	5
	11
	18
	5
	19
	0
	17
	19
	2
	10
	3
	4
	14
	1
	9
	12
	13
	11
	5
	16
	4
	10
	16
	7
	15
	0
	2
	15
	7
	6
	15
	2
	6
	15
	0
	16
	17
	9
	2
	17
	19
	2
	17
	19
	0
	17
	8
	2
	17
	9
	16
	17
	11
	7
	10
	8
	7
	17
	19
	2
	10
	9
	7
	10
	8
	6
	10
	4
	3
	5
	4
	13
	5
	8
	13
	12
	9
	18
	5
	8
	18
	5
	8
	13
	5
	11
	13
	12
	11
	13
	5
	8
	18
	14
	3
	4
	18
	5
	11
	1
	14
	9
	1
	14
	3
	18
	5
	19
	0
	10
	19
	0
	10
	4
	3
	10
	4
	3
	18
	14
	4
	3
	10
	4
	3
	14
	1
	9
	14
	1
	8
	14
	1
	11
	5
	18
	9
	5
	13
	8
	5
	18
	19
	5
	18
	9
	12
	13
	11
	12
	13
	9
	5
	18
	8
	14
	1
	9
	14
	1
	9
	14
	1
	8
	14
	1
	9
	12
	13
	8
	12
	13
	8
	5
	18
	19
	5
	18
	9
	5
	18
	11
	5
	13
	11
	12
	18
	6
	5
	8
	18
	12
	9
	1
	14
	11
	1
	12
	9
	13
	12
	11
	13
	5
	9
	18
	5
	19
	18
	5
	11
	13
	5
	8
	18
	14
	7
	0
	15
	7
	16
	15
	0
	16
	17
	11
	16
	17
	0
	11
	17
	16
	9
	17
	2
	19
	17
	0
	8
	10
	0
	19
	17
	2
	9
	10
	2
	6
	15
	7
	16
	15
	0
	7
	15
	16
	7
	15
	7
	6
	15
	7
	16
	15
